1430.4
1430.4
1430.4
1430.4
1430.4
1430.4
1430.4
1430.4
1430.4
1430.4
1430.4
1430.4
1430.4
1430.4
1430.4
1430.4
1430.4
1430.4
1430.4
1430.4
1430.4
1430.4
1430.4
1430.4
1430.4
1430.4
1430.4
1430.4
1430.4
1430.4
1430.4
1430.4
1430.4
1430.4
1430.4
1430.4
1430.4
1430.4
1430.4
1430.4
1430.4
1430.4
1430.4
1430.4
1430.4
1430.4
1430.4
1430.4
1430.4
1430.4
1430.4
1430.4
1430.4
1430.4
1430.4
1430.4
1430.4
1430.4
1430.4
1430.4
1430.4
1430.4
1430.4
1430.4
1430.4
1430.4
1430.4
1430.4
1430.4
1430.4
1430.4
1430.4
1430.4
1430.4
1430.4
1430.4
1430.4
1430.4
1430.4
1430.4
1430.4
1430.4
1430.4
1430.4
1430.4
1430.4
1430.4
1430.4
1430.4
1430.4
1430.4
1430.4
1430.4
1430.4
1430.4
1430.4
1430.4
1430.4
1430.4
1430.4
1430.4
1430.4
1430.4
1430.4
1430.4
1430.4
1430.4
1430.4
1430.4
1430.4
1430.4
1430.4
1430.4
1430.4
1430.4
1430.4
1430.4
1430.4
1430.4
1430.4
1430.4
1430.4
1430.4
1430.4
1430.4
1430.4
1430.4
1430.4
1430.4
1430.4
1430.4
1430.4
1430.4
1430.4
1430.4
1430.4
1430.4
1430.4
1430.4
1430.4
1430.4
1430.4
1430.4
1430.4
1430.4
1430.4
1430.4
1430.4
1430.4
1430.4
1430.4
1430.4
1430.4
1430.4
1430.4
1430.4
1430.4
1430.4
1430.4
1430.4
1430.4
1430.4
1430.4
1430.4
1430.4
1430.4
1430.4
1430.4
1430.4
1430.4
1430.4
1430.4
1430.4
1430.4
1430.4
1430.4
1430.4
1430.4
1430.4
1430.4
1430.4
1430.4
1430.4
1430.4
1430.4
1430.4
1430.4
1430.4
1430.4
1430.4
1430.4
1430.4
1430.4
1430.4
1430.4
1430.4
1430.4
1430.4
1430.4
1430.4
1430.4
1430.4
1430.4
1430.4
1430.4
1430.4
1430.4
1430.4
1430.4
1430.4
1430.4
1430.4
1430.4
1430.4
1430.4
1430.4
1430.4
1430.4
1430.4
1430.4
1430.4
1430.4
1430.4
1430.4
1430.4
1430.4
1430.4
1430.4
1430.4
1430.4
1430.4
1430.4
1430.4
1430.4
1430.4
1430.4
1430.4
1430.4
1430.4
1430.4
1430.4
1430.4
1430.4
1430.4
1430.4
1430.4
1430.4
1430.4
1430.4
1430.4
1430.4
1430.4
1430.4
1430.4
1430.4
1430.4
1430.4
1430.4
1430.4
1430.4
1430.4
1430.4
1430.4
1430.4
1430.4
1430.4
1430.4
1430.4
1430.4
1430.4
1430.4
1430.4
1430.4
1430.4
1430.4
1430.4
1430.4
1430.4
1430.4
1430.4
1430.4
1430.4
1430.4
1430.4
1430.4
1430.4
1430.4
1430.4
1430.4
1430.4
1430.4
1430.4
1430.4
1430.4
1430.4
1430.4
1430.4
1430.4
1430.4
1430.4
1430.4
1430.4
1430.4
1430.4
1430.4
1430.4
1430.4
1430.4
1430.4
1430.4
1430.4
1430.4
1430.4
1430.4
1430.4
1430.4
1430.4
1430.4
1430.4
1430.4
1430.4
1430.4
1430.4
1430.4
1430.4
1430.4
1430.4
1430.4
1430.4
1430.4
1430.4
1430.4
1430.4
1430.4
1430.4
1430.4
1430.4
1430.4
1430.4
1430.4
1430.4
1430.4
1430.4
1430.4
1430.4
1430.4
1430.4
1430.4
1430.4
1430.4
1430.4
1430.4
1430.4
1430.4
1430.4
1430.4
1430.4
1430.4
1430.4
1430.4
